param set_len = 50;
param target_sum = 10996275;
param values := [0] 724619 [1] 1032038 [2] 468070 [3] 638460 [4] 947271 [5] 1042927 [6] 258688 [7] 220505 [8] 47029 [9] 62162 [10] 734330 [11] 823176 [12] 190336 [13] 995483 [14] 51213 [15] 359927 [16] 280702 [17] 350859 [18] 767650 [19] 81574 [20] 755162 [21] 436678 [22] 491982 [23] 499318 [24] 1043154 [25] 239655 [26] 786638 [27] 350746 [28] 692014 [29] 834180 [30] 784547 [31] 858938 [32] 605143 [33] 159466 [34] 486435 [35] 945954 [36] 94995 [37] 476205 [38] 305673 [39] 269599 [40] 905161 [41] 248519 [42] 113521 [43] 323817 [44] 242719 [45] 55496 [46] 70681 [47] 427414 [48] 1935 [49] 258062 ;
